<number of tasks>
50

<cycle time>
1000

<order strength>
0.196


<task times>
1 196
2 41
3 161
4 162
5 349
6 297
7 57
8 288
9 76
10 415
11 208
12 162
13 64
14 312
15 299
16 661
17 50
18 134
19 531
20 232
21 66
22 247
23 115
24 32
25 526
26 381
27 181
28 174
29 506
30 383
31 432
32 198
33 119
34 88
35 65
36 142
37 197
38 58
39 199
40 145
41 26
42 125
43 230
44 202
45 39
46 212
47 247
48 426
49 499
50 135

<precedence relations>
1,7
2,8
3,10
4,9
4,12
4,45
5,23
6,11
7,13
8,16
9,14
10,17
11,15
11,18
11,33
13,20
14,21
15,19
15,22
15,23
15,38
17,24
18,25
18,39
18,45
19,26
20,29
21,28
22,27
22,30
22,32
22,49
24,31
24,33
24,44
24,49
25,46
26,35
27,36
28,37
29,38
30,34
31,39
33,40
34,41
35,42
36,43
37,44
38,43
38,45
38,50
40,48
41,46
42,47
43,47
44,48
44,50
45,49

<end>
